NAME : single
TYPE : ATSP
DIMENSION : 8
EDGE_WEIGHT_TYPE : EXPLICIT
EDGE_WEIGHT_FORMAT : FULL_MATRIX
EDGE_WEIGHT_SECTION
0 858 478 266 1374 1174 2451 1644 
199879 0 415 591 901 1429 1981 1121 
199846 415 0 708 1318 1045 2382 1538 
199866 591 708 0 1143 1450 2212 1377 
199765 901 1318 1143 0 2152 1304 542 
199729 1429 1045 1450 2152 0 2648 2373 
199568 1981 2382 2212 1304 2648 0 1244 
199717 1121 1538 1377 542 2373 1244 0 
EOF